data/solutions/recovery/wellformed/moderate/flexible/wellformed_moderate_instance76/30.sol
Elapsed time: 0.03
Upper bound: 1982.0
Planning weighted value: 130277.0
C[0]=1982.0
C[1]=1926.0
C[2]=1923.0
C[3]=1853.0
C[4]=1597.0
C[5]=0.0
y[0]=4
y[1]=2
y[2]=0
y[3]=3
y[4]=4
y[5]=4
y[6]=0
y[7]=3
y[8]=2
y[9]=0
y[10]=1
y[11]=4
y[12]=3
y[13]=3
y[14]=4
y[15]=4
y[16]=1
y[17]=2
y[18]=2
y[19]=0
