data/solutions/recovery/wellformed/moderate/flexible/wellformed_moderate_instance76/30.log

Log started (V12.6.3.0) Fri Apr 20 20:56:41 2018

New value for default parallel thread count: 1

Problem '/tmp/tmpVU_brx.pyomo.lp' read.
Read time = 0.00 sec. (0.03 ticks)

Problem name         : /tmp/tmpVU_brx.pyomo.lp
Objective sense      : Minimize
Variables            :     128  [Nneg: 1,  Binary: 120,  General Integer: 7]
Objective nonzeros   :       1
Linear constraints   :      54  [Less: 26,  Equal: 28]
  Nonzeros           :    1973
  RHS nonzeros       :      41

Variables            : Min LB: 0.000000         Max UB: 1.000000       
Objective nonzeros   : Min   : 1.000000         Max   : 1.000000       
Linear constraints   :
  Nonzeros           : Min   : 1.000000         Max   : 971.0000       
  RHS nonzeros       : Min   : 1.000000         Max   : 2.000000       
Tried aggregator 2 times.
MIP Presolve eliminated 23 rows and 26 columns.
Aggregator did 6 substitutions.
Reduced MIP has 25 rows, 96 columns, and 259 nonzeros.
Reduced MIP has 95 binaries, 1 generals, 0 SOSs, and 0 indicators.
Presolve time = 0.00 sec. (0.74 ticks)
Found incumbent of value 9281.000000 after 0.00 sec. (0.91 ticks)
Probing time = 0.00 sec. (0.08 ticks)
Cover probing fixed 0 vars, tightened 3 bounds.
Tried aggregator 1 time.
Reduced MIP has 25 rows, 96 columns, and 259 nonzeros.
Reduced MIP has 95 binaries, 1 generals, 0 SOSs, and 0 indicators.
Presolve time = 0.00 sec. (0.17 ticks)
Probing time = 0.00 sec. (0.06 ticks)
Clique table members: 19.
MIP emphasis: balance optimality and feasibility.
MIP search method: dynamic search.
Parallel mode: none, using 1 thread.
Root relaxation solution time = 0.00 sec. (0.08 ticks)

        Nodes                                         Cuts/
   Node  Left     Objective  IInf  Best Integer    Best Bound    ItCnt     Gap

*     0+    0                         9281.0000      971.0000            89.54%
      0     0     1856.2000     8     9281.0000     1856.2000        6   80.00%
*     0+    0                         2894.0000     1856.2000            35.86%
      0     0     1857.0000    15     2894.0000      Fract: 5       27   35.83%
*     0+    0                         2099.0000     1857.0000            11.53%
      0     0     1882.4302    19     2099.0000      Cuts: 14       77   10.32%
      0     0     1887.0664    26     2099.0000       Cuts: 8       97   10.10%
*     0+    0                         2089.0000     1887.0664             9.67%
      0     0     1892.5777    22     2089.0000       Cuts: 7      110    9.40%
*     0+    0                         2033.0000     1892.5777             6.91%
      0     0     1905.2807    19     2033.0000    MIRcuts: 5      119    6.28%
      0     0     1906.2363    23     2033.0000       Cuts: 4      127    6.24%
      0     0     1907.4914    26     2033.0000    MIRcuts: 3      137    6.17%
      0     0     1911.9858    23     2033.0000    MIRcuts: 3      156    5.95%
      0     0     1918.3440    25     2033.0000       Cuts: 5      173    5.64%
      0     0     1926.8397    26     2033.0000    MIRcuts: 3      183    5.22%
      0     0     1928.2525    21     2033.0000       Cuts: 6      189    5.15%
      0     0     1928.2728    22     2033.0000       Cuts: 3      191    5.15%
*     0+    0                         1982.0000     1928.2728             2.71%
      0     0     1929.1888    21     1982.0000    MIRcuts: 2      193    2.66%
      0     0     1944.0993    16     1982.0000    MIRcuts: 5      209    1.91%

Repeating presolve.
Tried aggregator 2 times.
MIP Presolve eliminated 4 rows and 36 columns.
Aggregator did 3 substitutions.
Reduced MIP has 18 rows, 57 columns, and 152 nonzeros.
Reduced MIP has 56 binaries, 1 generals, 0 SOSs, and 0 indicators.
Presolve time = 0.00 sec. (0.16 ticks)
Probing fixed 1 vars, tightened 0 bounds.
Probing time = 0.00 sec. (0.05 ticks)
Tried aggregator 1 time.
MIP Presolve eliminated 0 rows and 1 columns.
Reduced MIP has 18 rows, 56 columns, and 149 nonzeros.
Reduced MIP has 55 binaries, 1 generals, 0 SOSs, and 0 indicators.
Presolve time = 0.00 sec. (0.09 ticks)
Probing time = 0.00 sec. (0.05 ticks)
Tried aggregator 1 time.
Reduced MIP has 18 rows, 56 columns, and 149 nonzeros.
Reduced MIP has 55 binaries, 1 generals, 0 SOSs, and 0 indicators.
Presolve time = 0.00 sec. (0.09 ticks)
Represolve time = 0.00 sec. (0.78 ticks)
Probing time = 0.00 sec. (0.05 ticks)
Clique table members: 65.
MIP emphasis: balance optimality and feasibility.
MIP search method: dynamic search.
Parallel mode: none, using 1 thread.
Root relaxation solution time = 0.00 sec. (0.29 ticks)

        Nodes                                         Cuts/
   Node  Left     Objective  IInf  Best Integer    Best Bound    ItCnt     Gap

*     0+    0                         1982.0000     1944.0993             1.91%
      0     0     1944.0993    16     1982.0000     1944.0993      252    1.91%
      0     0     1961.6602     9     1982.0000       Cuts: 4      261    1.03%
      0     0        cutoff           1982.0000                    263    0.00%
Elapsed time = 0.02 sec. (12.40 ticks, tree = 0.01 MB, solutions = 6)

Cover cuts applied:  1
Flow cuts applied:  1
Mixed integer rounding cuts applied:  14
Lift and project cuts applied:  1
Gomory fractional cuts applied:  1

Root node processing (before b&c):
  Real time             =    0.02 sec. (12.41 ticks)
Sequential b&c:
  Real time             =    0.00 sec. (0.00 ticks)
                          ------------
Total (root+branch&cut) =    0.02 sec. (12.41 ticks)

Solution pool: 6 solutions saved.

MIP - Integer optimal solution:  Objective =  1.9820000000e+03
Solution time =    0.02 sec.  Iterations = 263  Nodes = 0
Deterministic time = 12.41 ticks  (614.49 ticks/sec)


Incumbent solution written to file '/tmp/tmpnYetYZ.cplex.sol'.
